# Solution for model GasLib-40
# Objective value = 1.0315210895190258e+01
loadshed[innode_1] 0
loadshed[innode_2] 0
loadshed[innode_3] 0
loadshed[innode_4] 0
loadshed[innode_5] 0
loadshed[innode_6] 0
loadshed[innode_7] 0
loadshed[innode_8] 0
loadshed[source_1] -1.6080425995476988e-01
loadshed[source_2] 4.6310990157061305e-03
loadshed[source_3] 2.2142202405818245e-01
loadshed[sink_1] 0
loadshed[sink_2] 0
loadshed[sink_3] 0
loadshed[sink_4] 0
loadshed[sink_5] 0
loadshed[sink_6] 0
loadshed[sink_7] 0
loadshed[sink_8] 0
loadshed[sink_9] 0
loadshed[sink_10] 0
loadshed[sink_11] 0
loadshed[sink_12] 6.3073901015176093e-01
loadshed[sink_13] 0
loadshed[sink_14] 0
loadshed[sink_15] 0
loadshed[sink_16] 0
loadshed[sink_17] 0
loadshed[sink_18] 0
loadshed[sink_19] 0
loadshed[sink_20] 0
loadshed[sink_21] 0
loadshed[sink_22] 0
loadshed[sink_23] 0
loadshed[sink_24] 0
loadshed[sink_25] 0
loadshed[sink_26] 0
loadshed[sink_27] 0
loadshed[sink_28] 0
loadshed[sink_29] 0
flow[source_1,sink_3] 1.8351186790187734e+02
flow[innode_1,sink_16] 1.6354166666666970e+01
flow[innode_6,sink_13] -8.6064418216349310e+00
flow[sink_13,sink_14] -24.9606084883016
flow[sink_14,sink_10] -4.1314775154968267e+01
flow[sink_25,sink_26] 1.6920821927235843e+02
flow[sink_26,sink_9] 1.2808439671600914e+02
flow[sink_9,sink_18] 1.1173023004934248e+02
flow[sink_26,sink_4] 2.4769655889682625e+01
flow[sink_4,sink_20] 8.4154892230159568e+00
flow[sink_18,sink_6] 9.5376063382675810e+01
flow[sink_25,innode_8] -1.5080353456854095e+02
flow[sink_6,sink_7] 4.6313563382675966e+01
flow[sink_6,sink_22] 3.2708333333333641e+01
flow[sink_7,sink_24] 3.8747289104809745e+01
flow[sink_22,sink_1] 1.6354166666666970e+01
flow[sink_24,sink_21] 2.2393122438143081e+01
flow[sink_21,sink_12] 6.0389557714764113e+00
flow[sink_7,sink_5] -8.7878923888004579e+00
flow[sink_5,sink_17] -2.5142059055467143e+01
flow[sink_17,sink_4] 0
flow[sink_17,sink_8] -4.1496225722133843e+01
flow[sink_3,sink_23] 16.3541666666697
flow[sink_8,sink_20] -5.7850392388800515e+01
flow[sink_25,sink_20] 6.5789069832451162e+01
flow[sink_25,sink_15] -9.1941479381300510e+01
flow[sink_15,sink_29] -6.0647983131405240e+01
flow[sink_29,sink_28] 1.6354166666667879e+01
flow[sink_29,sink_2] 6.4001829583228613e+01
flow[sink_2,sink_15] 4.7647662916561941e+01
flow[sink_29,innode_7] -1.5735814604796840e+02
flow[innode_4,sink_19] 4.7874636476874940e+01
flow[sink_19,innode_3] 4.4103728793353646e+01
flow[innode_4,innode_5] 7.5210972011426975e+01
flow[sink_27,innode_5] -7.5210972011426975e+01
flow[sink_27,sink_19] 5.8856805344760311e+01
flow[sink_10,sink_11] 3.2708333333333641e+01
flow[sink_10,innode_2] -4.6273546361614926e+01
flow[sink_10,innode_3] -4.4103728793353646e+01
flow[innode_6,sink_25] 8.6064418216349310e+00
flow[sink_11,innode_1] 1.6354166666666970e+01
flow[sink_19,innode_2] 4.6273546361614926e+01
flow[source_3,innode_4] 1.2308560848830192e+02
flow[source_2,innode_7] 1.5735814604796840e+02
flow[sink_3,innode_8] 1.5080353456854095e+02
pressure[innode_1] 7.6476277142232149e+01
pressure[innode_2] 79.0737264910528
pressure[innode_3] 7.8976063777845425e+01
pressure[innode_4] 81.01325
pressure[innode_5] 8.0961515927563710e+01
pressure[innode_6] 7.4581732586425773e+01
pressure[innode_7] 81.01325
pressure[innode_8] 8.0399839929678549e+01
pressure[source_1] 81.01325
pressure[source_2] 81.01325
pressure[source_3] 81.01325
pressure[sink_1] 4.6307680142262107e+01
pressure[sink_2] 7.5183297469256885e+01
pressure[sink_3] 8.0399839929678549e+01
pressure[sink_4] 5.9515218917004553e+01
pressure[sink_5] 5.1427798645314162e+01
pressure[sink_6] 4.8408757752649478e+01
pressure[sink_7] 4.7772982922232039e+01
pressure[sink_8] 5.4866460713963448e+01
pressure[sink_9] 5.4998315353368895e+01
pressure[sink_10] 76.6279784498357
pressure[sink_11] 7.6476277142232149e+01
pressure[sink_12] 1.0132499999999998e+00
pressure[sink_13] 74.6291784619184
pressure[sink_14] 7.4673847596981929e+01
pressure[sink_15] 7.5027738351210076e+01
pressure[sink_16] 7.5454627307414469e+01
pressure[sink_17] 5.3300700312923865e+01
pressure[sink_18] 5.0955582616826256e+01
pressure[sink_19] 79.0737264910528
pressure[sink_20] 5.8897819497714821e+01
pressure[sink_21] 3.1622409768281008e+00
pressure[sink_22] 4.7371449284617114e+01
pressure[sink_23] 8.0235121918018763e+01
pressure[sink_24] 3.4102240021384551e+00
pressure[sink_25] 7.4581732586425773e+01
pressure[sink_26] 6.2664497073550066e+01
pressure[sink_27] 8.0337403834801989e+01
pressure[sink_28] 7.6509253769428568e+01
pressure[sink_29] 7.6804536043045744e+01
interdiction[source_1,sink_3] 0
interdiction[innode_1,sink_16] 0
interdiction[innode_6,sink_13] 0
interdiction[sink_13,sink_14] 0
interdiction[sink_14,sink_10] 0
interdiction[sink_25,sink_26] 0
interdiction[sink_26,sink_9] 0
interdiction[sink_9,sink_18] 0
interdiction[sink_26,sink_4] 0
interdiction[sink_4,sink_20] 0
interdiction[sink_18,sink_6] 0
interdiction[sink_25,innode_8] 0
interdiction[sink_6,sink_7] 0
interdiction[sink_6,sink_22] 0
interdiction[sink_7,sink_24] 0
interdiction[sink_22,sink_1] 0
interdiction[sink_24,sink_21] 0
interdiction[sink_21,sink_12] 0
interdiction[sink_7,sink_5] 0
interdiction[sink_5,sink_17] 0
interdiction[sink_17,sink_4] 1
interdiction[sink_17,sink_8] 0
interdiction[sink_3,sink_23] 0
interdiction[sink_8,sink_20] 0
interdiction[sink_25,sink_20] 0
interdiction[sink_25,sink_15] 0
interdiction[sink_15,sink_29] 0
interdiction[sink_29,sink_28] 0
interdiction[sink_29,sink_2] 0
interdiction[sink_2,sink_15] 0
interdiction[sink_29,innode_7] 0
interdiction[innode_4,sink_19] 0
interdiction[sink_19,innode_3] 0
interdiction[innode_4,innode_5] 0
interdiction[sink_27,innode_5] 0
interdiction[sink_27,sink_19] 0
interdiction[sink_10,sink_11] 0
interdiction[sink_10,innode_2] 0
interdiction[sink_10,innode_3] 0
interdiction[innode_6,sink_25] 0
interdiction[sink_11,innode_1] 0
interdiction[sink_19,innode_2] 0
interdiction[source_3,innode_4] 0
interdiction[source_2,innode_7] 0
interdiction[sink_3,innode_8] 0
WCcheckFlow[source_1,sink_3] 39
WCcheckFlow[innode_1,sink_16] 1
WCcheckFlow[innode_6,sink_13] 13
WCcheckFlow[sink_13,sink_14] 12
WCcheckFlow[sink_14,sink_10] 11
WCcheckFlow[sink_25,sink_26] 15
WCcheckFlow[sink_26,sink_9] 12
WCcheckFlow[sink_9,sink_18] 11
WCcheckFlow[sink_26,sink_4] 2
WCcheckFlow[sink_4,sink_20] 1
WCcheckFlow[sink_18,sink_6] 10
WCcheckFlow[sink_25,innode_8] -36
WCcheckFlow[sink_6,sink_7] 7
WCcheckFlow[sink_6,sink_22] 2
WCcheckFlow[sink_7,sink_24] 3
WCcheckFlow[sink_22,sink_1] 1
WCcheckFlow[sink_24,sink_21] 2
WCcheckFlow[sink_21,sink_12] 1
WCcheckFlow[sink_7,sink_5] 3
WCcheckFlow[sink_5,sink_17] 2
WCcheckFlow[sink_17,sink_4] 0
WCcheckFlow[sink_17,sink_8] 1
WCcheckFlow[sink_3,sink_23] 1
WCcheckFlow[sink_8,sink_20] 0
WCcheckFlow[sink_25,sink_20] 0
WCcheckFlow[sink_25,sink_15] 6
WCcheckFlow[sink_15,sink_29] 5
WCcheckFlow[sink_29,sink_28] 1
WCcheckFlow[sink_29,sink_2] 1
WCcheckFlow[sink_2,sink_15] 0
WCcheckFlow[sink_29,innode_7] 2
WCcheckFlow[innode_4,sink_19] -4
WCcheckFlow[sink_19,innode_3] -5
WCcheckFlow[innode_4,innode_5] 2
WCcheckFlow[sink_27,innode_5] -1
WCcheckFlow[sink_27,sink_19] 0
WCcheckFlow[sink_10,sink_11] 3
WCcheckFlow[sink_10,innode_2] 1
WCcheckFlow[sink_10,innode_3] 6
WCcheckFlow[innode_6,sink_25] -14
WCcheckFlow[sink_11,innode_1] 2
WCcheckFlow[sink_19,innode_2] 0
WCcheckFlow[source_3,innode_4] -1
WCcheckFlow[source_2,innode_7] -1
WCcheckFlow[sink_3,innode_8] 37
